0 62 43 4 2 7 6 5 74 67 66 65 64 63 68 38 3 71 70 72 69 41 40 42 39 56 60 57 61 54 58 59 55 19 18 49 48 47 46 45 52 51 50 17 44 31 30 10 9 16 15 34 33 1 36 35 14 13 12 11 29 32 22 21 20 37 53 73 8 27 28 23 24 25 26 0 